; Start decls (2)
(declare-fun end_ackermann!1 () (_ BitVec 32))
(declare-fun start_ackermann!0 () (_ BitVec 32))
; End decls
; Start constraints (86)
(assert (not (fp.isNaN ((_ to_fp 8 24) start_ackermann!0))))
(assert (not (fp.eq ((_ to_fp 8 24) start_ackermann!0) ((_ to_fp 8 24) end_ackermann!1))))
(assert (not (fp.isNaN ((_ to_fp 8 24) end_ackermann!1))))
(assert (not (fp.gt ((_ to_fp 8 24) start_ackermann!0) ((_ to_fp 8 24) end_ackermann!1))))
(assert (not (fp.lt ((_ to_fp 8 24) start_ackermann!0) ((_ to_fp 8 24) #x3f800000))))
(assert (not (fp.gt ((_ to_fp 8 24) end_ackermann!1) ((_ to_fp 8 24) #x3f800054))))
(assert (not (fp.eq ((_ to_fp 8 24) (bvadd #x00000001 start_ackermann!0))
            ((_ to_fp 8 24) end_ackermann!1))))
(assert (not (fp.eq ((_ to_fp 8 24) (bvadd #x00000002 start_ackermann!0))
            ((_ to_fp 8 24) end_ackermann!1))))
(assert (not (fp.eq ((_ to_fp 8 24) (bvadd #x00000003 start_ackermann!0))
            ((_ to_fp 8 24) end_ackermann!1))))
(assert (not (fp.eq ((_ to_fp 8 24) (bvadd #x00000004 start_ackermann!0))
            ((_ to_fp 8 24) end_ackermann!1))))
(assert (not (fp.eq ((_ to_fp 8 24) (bvadd #x00000005 start_ackermann!0))
            ((_ to_fp 8 24) end_ackermann!1))))
(assert (not (fp.eq ((_ to_fp 8 24) (bvadd #x00000006 start_ackermann!0))
            ((_ to_fp 8 24) end_ackermann!1))))
(assert (not (fp.eq ((_ to_fp 8 24) (bvadd #x00000007 start_ackermann!0))
            ((_ to_fp 8 24) end_ackermann!1))))
(assert (not (fp.eq ((_ to_fp 8 24) (bvadd #x00000008 start_ackermann!0))
            ((_ to_fp 8 24) end_ackermann!1))))
(assert (not (fp.eq ((_ to_fp 8 24) (bvadd #x00000009 start_ackermann!0))
            ((_ to_fp 8 24) end_ackermann!1))))
(assert (not (fp.eq ((_ to_fp 8 24) (bvadd #x0000000a start_ackermann!0))
            ((_ to_fp 8 24) end_ackermann!1))))
(assert (not (fp.eq ((_ to_fp 8 24) (bvadd #x0000000b start_ackermann!0))
            ((_ to_fp 8 24) end_ackermann!1))))
(assert (not (fp.eq ((_ to_fp 8 24) (bvadd #x0000000c start_ackermann!0))
            ((_ to_fp 8 24) end_ackermann!1))))
(assert (not (fp.eq ((_ to_fp 8 24) (bvadd #x0000000d start_ackermann!0))
            ((_ to_fp 8 24) end_ackermann!1))))
(assert (not (fp.eq ((_ to_fp 8 24) (bvadd #x0000000e start_ackermann!0))
            ((_ to_fp 8 24) end_ackermann!1))))
(assert (not (fp.eq ((_ to_fp 8 24) (bvadd #x0000000f start_ackermann!0))
            ((_ to_fp 8 24) end_ackermann!1))))
(assert (not (fp.eq ((_ to_fp 8 24) (bvadd #x00000010 start_ackermann!0))
            ((_ to_fp 8 24) end_ackermann!1))))
(assert (not (fp.eq ((_ to_fp 8 24) (bvadd #x00000011 start_ackermann!0))
            ((_ to_fp 8 24) end_ackermann!1))))
(assert (not (fp.eq ((_ to_fp 8 24) (bvadd #x00000012 start_ackermann!0))
            ((_ to_fp 8 24) end_ackermann!1))))
(assert (not (fp.eq ((_ to_fp 8 24) (bvadd #x00000013 start_ackermann!0))
            ((_ to_fp 8 24) end_ackermann!1))))
(assert (not (fp.eq ((_ to_fp 8 24) (bvadd #x00000014 start_ackermann!0))
            ((_ to_fp 8 24) end_ackermann!1))))
(assert (not (fp.eq ((_ to_fp 8 24) (bvadd #x00000015 start_ackermann!0))
            ((_ to_fp 8 24) end_ackermann!1))))
(assert (not (fp.eq ((_ to_fp 8 24) (bvadd #x00000016 start_ackermann!0))
            ((_ to_fp 8 24) end_ackermann!1))))
(assert (not (fp.eq ((_ to_fp 8 24) (bvadd #x00000017 start_ackermann!0))
            ((_ to_fp 8 24) end_ackermann!1))))
(assert (not (fp.eq ((_ to_fp 8 24) (bvadd #x00000018 start_ackermann!0))
            ((_ to_fp 8 24) end_ackermann!1))))
(assert (not (fp.eq ((_ to_fp 8 24) (bvadd #x00000019 start_ackermann!0))
            ((_ to_fp 8 24) end_ackermann!1))))
(assert (not (fp.eq ((_ to_fp 8 24) (bvadd #x0000001a start_ackermann!0))
            ((_ to_fp 8 24) end_ackermann!1))))
(assert (not (fp.eq ((_ to_fp 8 24) (bvadd #x0000001b start_ackermann!0))
            ((_ to_fp 8 24) end_ackermann!1))))
(assert (not (fp.eq ((_ to_fp 8 24) (bvadd #x0000001c start_ackermann!0))
            ((_ to_fp 8 24) end_ackermann!1))))
(assert (not (fp.eq ((_ to_fp 8 24) (bvadd #x0000001d start_ackermann!0))
            ((_ to_fp 8 24) end_ackermann!1))))
(assert (not (fp.eq ((_ to_fp 8 24) (bvadd #x0000001e start_ackermann!0))
            ((_ to_fp 8 24) end_ackermann!1))))
(assert (not (fp.eq ((_ to_fp 8 24) (bvadd #x0000001f start_ackermann!0))
            ((_ to_fp 8 24) end_ackermann!1))))
(assert (not (fp.eq ((_ to_fp 8 24) (bvadd #x00000020 start_ackermann!0))
            ((_ to_fp 8 24) end_ackermann!1))))
(assert (not (fp.eq ((_ to_fp 8 24) (bvadd #x00000021 start_ackermann!0))
            ((_ to_fp 8 24) end_ackermann!1))))
(assert (not (fp.eq ((_ to_fp 8 24) (bvadd #x00000022 start_ackermann!0))
            ((_ to_fp 8 24) end_ackermann!1))))
(assert (not (fp.eq ((_ to_fp 8 24) (bvadd #x00000023 start_ackermann!0))
            ((_ to_fp 8 24) end_ackermann!1))))
(assert (not (fp.eq ((_ to_fp 8 24) (bvadd #x00000024 start_ackermann!0))
            ((_ to_fp 8 24) end_ackermann!1))))
(assert (not (fp.eq ((_ to_fp 8 24) (bvadd #x00000025 start_ackermann!0))
            ((_ to_fp 8 24) end_ackermann!1))))
(assert (not (fp.eq ((_ to_fp 8 24) (bvadd #x00000026 start_ackermann!0))
            ((_ to_fp 8 24) end_ackermann!1))))
(assert (not (fp.eq ((_ to_fp 8 24) (bvadd #x00000027 start_ackermann!0))
            ((_ to_fp 8 24) end_ackermann!1))))
(assert (not (fp.eq ((_ to_fp 8 24) (bvadd #x00000028 start_ackermann!0))
            ((_ to_fp 8 24) end_ackermann!1))))
(assert (not (fp.eq ((_ to_fp 8 24) (bvadd #x00000029 start_ackermann!0))
            ((_ to_fp 8 24) end_ackermann!1))))
(assert (not (fp.eq ((_ to_fp 8 24) (bvadd #x0000002a start_ackermann!0))
            ((_ to_fp 8 24) end_ackermann!1))))
(assert (not (fp.eq ((_ to_fp 8 24) (bvadd #x0000002b start_ackermann!0))
            ((_ to_fp 8 24) end_ackermann!1))))
(assert (not (fp.eq ((_ to_fp 8 24) (bvadd #x0000002c start_ackermann!0))
            ((_ to_fp 8 24) end_ackermann!1))))
(assert (not (fp.eq ((_ to_fp 8 24) (bvadd #x0000002d start_ackermann!0))
            ((_ to_fp 8 24) end_ackermann!1))))
(assert (not (fp.eq ((_ to_fp 8 24) (bvadd #x0000002e start_ackermann!0))
            ((_ to_fp 8 24) end_ackermann!1))))
(assert (not (fp.eq ((_ to_fp 8 24) (bvadd #x0000002f start_ackermann!0))
            ((_ to_fp 8 24) end_ackermann!1))))
(assert (not (fp.eq ((_ to_fp 8 24) (bvadd #x00000030 start_ackermann!0))
            ((_ to_fp 8 24) end_ackermann!1))))
(assert (not (fp.eq ((_ to_fp 8 24) (bvadd #x00000031 start_ackermann!0))
            ((_ to_fp 8 24) end_ackermann!1))))
(assert (not (fp.eq ((_ to_fp 8 24) (bvadd #x00000032 start_ackermann!0))
            ((_ to_fp 8 24) end_ackermann!1))))
(assert (not (fp.eq ((_ to_fp 8 24) (bvadd #x00000033 start_ackermann!0))
            ((_ to_fp 8 24) end_ackermann!1))))
(assert (not (fp.eq ((_ to_fp 8 24) (bvadd #x00000034 start_ackermann!0))
            ((_ to_fp 8 24) end_ackermann!1))))
(assert (not (fp.eq ((_ to_fp 8 24) (bvadd #x00000035 start_ackermann!0))
            ((_ to_fp 8 24) end_ackermann!1))))
(assert (not (fp.eq ((_ to_fp 8 24) (bvadd #x00000036 start_ackermann!0))
            ((_ to_fp 8 24) end_ackermann!1))))
(assert (not (fp.eq ((_ to_fp 8 24) (bvadd #x00000037 start_ackermann!0))
            ((_ to_fp 8 24) end_ackermann!1))))
(assert (not (fp.eq ((_ to_fp 8 24) (bvadd #x00000038 start_ackermann!0))
            ((_ to_fp 8 24) end_ackermann!1))))
(assert (not (fp.eq ((_ to_fp 8 24) (bvadd #x00000039 start_ackermann!0))
            ((_ to_fp 8 24) end_ackermann!1))))
(assert (not (fp.eq ((_ to_fp 8 24) (bvadd #x0000003a start_ackermann!0))
            ((_ to_fp 8 24) end_ackermann!1))))
(assert (not (fp.eq ((_ to_fp 8 24) (bvadd #x0000003b start_ackermann!0))
            ((_ to_fp 8 24) end_ackermann!1))))
(assert (not (fp.eq ((_ to_fp 8 24) (bvadd #x0000003c start_ackermann!0))
            ((_ to_fp 8 24) end_ackermann!1))))
(assert (not (fp.eq ((_ to_fp 8 24) (bvadd #x0000003d start_ackermann!0))
            ((_ to_fp 8 24) end_ackermann!1))))
(assert (not (fp.eq ((_ to_fp 8 24) (bvadd #x0000003e start_ackermann!0))
            ((_ to_fp 8 24) end_ackermann!1))))
(assert (not (fp.eq ((_ to_fp 8 24) (bvadd #x0000003f start_ackermann!0))
            ((_ to_fp 8 24) end_ackermann!1))))
(assert (not (fp.eq ((_ to_fp 8 24) (bvadd #x00000040 start_ackermann!0))
            ((_ to_fp 8 24) end_ackermann!1))))
(assert (not (fp.eq ((_ to_fp 8 24) (bvadd #x00000041 start_ackermann!0))
            ((_ to_fp 8 24) end_ackermann!1))))
(assert (not (fp.eq ((_ to_fp 8 24) (bvadd #x00000042 start_ackermann!0))
            ((_ to_fp 8 24) end_ackermann!1))))
(assert (not (fp.eq ((_ to_fp 8 24) (bvadd #x00000043 start_ackermann!0))
            ((_ to_fp 8 24) end_ackermann!1))))
(assert (not (fp.eq ((_ to_fp 8 24) (bvadd #x00000044 start_ackermann!0))
            ((_ to_fp 8 24) end_ackermann!1))))
(assert (not (fp.eq ((_ to_fp 8 24) (bvadd #x00000045 start_ackermann!0))
            ((_ to_fp 8 24) end_ackermann!1))))
(assert (not (fp.eq ((_ to_fp 8 24) (bvadd #x00000046 start_ackermann!0))
            ((_ to_fp 8 24) end_ackermann!1))))
(assert (not (fp.eq ((_ to_fp 8 24) (bvadd #x00000047 start_ackermann!0))
            ((_ to_fp 8 24) end_ackermann!1))))
(assert (not (fp.eq ((_ to_fp 8 24) (bvadd #x00000048 start_ackermann!0))
            ((_ to_fp 8 24) end_ackermann!1))))
(assert (not (fp.eq ((_ to_fp 8 24) (bvadd #x00000049 start_ackermann!0))
            ((_ to_fp 8 24) end_ackermann!1))))
(assert (not (fp.eq ((_ to_fp 8 24) (bvadd #x0000004a start_ackermann!0))
            ((_ to_fp 8 24) end_ackermann!1))))
(assert (not (fp.eq ((_ to_fp 8 24) (bvadd #x0000004b start_ackermann!0))
            ((_ to_fp 8 24) end_ackermann!1))))
(assert (not (fp.eq ((_ to_fp 8 24) (bvadd #x0000004c start_ackermann!0))
            ((_ to_fp 8 24) end_ackermann!1))))
(assert (not (fp.eq ((_ to_fp 8 24) (bvadd #x0000004d start_ackermann!0))
            ((_ to_fp 8 24) end_ackermann!1))))
(assert (not (fp.eq ((_ to_fp 8 24) (bvadd #x0000004e start_ackermann!0))
            ((_ to_fp 8 24) end_ackermann!1))))
(assert (not (fp.eq ((_ to_fp 8 24) (bvadd #x0000004f start_ackermann!0))
            ((_ to_fp 8 24) end_ackermann!1))))
(assert (let ((a!1 (not (fp.eq ((_ to_fp 8 24) (bvadd #x00000050 start_ackermann!0))
                       ((_ to_fp 8 24) end_ackermann!1)))))
  (not a!1)))
; End constraints
(check-sat)
(exit)
